
Gurobi 9.1.2 (win64) logging started Mon Dec  6 14:34:29 2021

Gurobi Optimizer version 9.1.2 build v9.1.2rc0 (win64)
Thread count: 8 physical cores, 8 logical processors, using up to 8 threads
Optimize a model with 1 rows, 156 columns and 155 nonzeros
Model fingerprint: 0x913f7144
Variable types: 1 continuous, 155 integer (155 binary)
Coefficient statistics:
  Matrix range     [1e+00, 1e+01]
  Objective range  [1e+00, 1e+00]
  Bounds range     [6e+01, 6e+01]
  RHS range        [1e+01, 1e+01]
Presolve time: 0.00s
Presolved: 1 rows, 156 columns, 155 nonzeros
Variable types: 1 continuous, 155 integer (155 binary)

Root simplex log...

Iteration    Objective       Primal Inf.    Dual Inf.      Time
       0   -6.4627481e+01   3.630918e-01   0.000000e+00     15s
       2   -6.4627481e+01   0.000000e+00   0.000000e+00     15s

Root relaxation: objective -6.462748e+01, 2 iterations, 0.00 seconds

    Nodes    |    Current Node    |     Objective Bounds      |     Work
 Expl Unexpl |  Obj  Depth IntInf | Incumbent    BestBd   Gap | It/Node Time

     0     0  -40.11286    0    2          -  -40.11286      -     -   14s
H    0     0                       0.8788995  -40.11286  4664%     -   17s
H    0     0                       0.8755215  -40.11286  4682%     -   19s
     0     0  -23.13282    0    7    0.87552  -23.13282  2742%     -   19s
H    0     0                       0.8755215  -23.13282  2742%     -   20s
     0     0  -22.05595    0   10    0.87552  -22.05595  2619%     -   21s
H    0     0                       0.8436391  -22.05595  2714%     -   22s
     0     0  -21.32435    0   11    0.84364  -21.32435  2628%     -   22s
     0     0  -21.32347    0   11    0.84364  -21.32347  2628%     -   22s
     0     0  -20.07585    0    9    0.84364  -20.07585  2480%     -   22s
     0     0  -19.97370    0    9    0.84364  -19.97370  2468%     -   22s
     0     0  -19.40545    0    9    0.84364  -19.40545  2400%     -   22s
     0     0  -19.29907    0    9    0.84364  -19.29907  2388%     -   22s
     0     0  -19.29776    0   10    0.84364  -19.29776  2387%     -   22s
     0     0  -19.23323    0   12    0.84364  -19.23323  2380%     -   22s
     0     2  -19.23323    0   12    0.84364  -19.23323  2380%     -   22s
   317    88   -0.52708   23    3    0.84364  -12.44908  1576%   3.8   28s
   686   158   -4.86298   18    -    0.84364   -6.71919   896%   4.0   35s

Cutting planes:
  Cover: 2
  MIR: 14
  StrongCG: 1
  Lazy constraints: 116

Explored 1429 nodes (5903 simplex iterations) in 43.16 seconds
Thread count was 8 (of 8 available processors)

Solution count 4: 0.843639 0.875521 0.875521 0.878899 

Optimal solution found (tolerance 1.00e-04)
Best objective 8.436391236056e-01, best bound 8.436391236056e-01, gap 0.0000%

User-callback calls 3133, time in user-callback 46.54 sec
